\* ACPM *\
Minimize
OBJ: 7.5 x_10_1 + 2.5 x_10_4 + 7.5 x_10_6 + 6.5 x_10_9 + 7.5 x_1_10 + 9 x_1_2
 + 0.5 x_1_4 + 7.5 x_1_5 + 4.5 x_1_8 + 9 x_2_1 + 9 x_2_3 + 9 x_2_5 + 9 x_3_2
 + 5 x_3_4 + 5.5 x_3_7 + 0.5 x_3_9 + 0.5 x_4_1 + 2.5 x_4_10 + 5 x_4_3
 + 7.5 x_4_5 + 8 x_4_7 + 5 x_4_8 + 7.5 x_5_1 + 9 x_5_2 + 7.5 x_5_4 + 9 x_5_6
 + 7.5 x_6_10 + 9 x_6_5 + 6.5 x_6_7 + 5.5 x_7_3 + 8 x_7_4 + 6.5 x_7_6
 + 6 x_7_8 + 4.5 x_8_1 + 5 x_8_4 + 6 x_8_7 + 0.5 x_8_9 + 6.5 x_9_10
 + 0.5 x_9_3 + 0.5 x_9_8
Subject To
_C1: x_1_2 - x_2_1 = 0
_C10: x_3_4 - x_4_3 = 0
_C100: f392 - x_3_9 <= 0
_C101: f372 - x_3_7 <= 0
_C102: f432 - x_4_3 <= 0
_C103: f452 - x_4_5 <= 0
_C104: f412 - x_4_1 <= 0
_C105: f472 - x_4_7 <= 0
_C106: f482 - x_4_8 <= 0
_C107: f4102 - x_4_10 <= 0
_C108: f542 - x_5_4 <= 0
_C109: f562 - x_5_6 <= 0
_C11: x_3_9 - x_9_3 = 0
_C110: f512 - x_5_1 <= 0
_C111: f522 - x_5_2 <= 0
_C112: f652 - x_6_5 <= 0
_C113: f672 - x_6_7 <= 0
_C114: f6102 - x_6_10 <= 0
_C115: f762 - x_7_6 <= 0
_C116: f782 - x_7_8 <= 0
_C117: f732 - x_7_3 <= 0
_C118: f742 - x_7_4 <= 0
_C119: f872 - x_8_7 <= 0
_C12: x_3_7 - x_7_3 = 0
_C120: f892 - x_8_9 <= 0
_C121: f812 - x_8_1 <= 0
_C122: f842 - x_8_4 <= 0
_C123: f982 - x_9_8 <= 0
_C124: f9102 - x_9_10 <= 0
_C125: f932 - x_9_3 <= 0
_C126: f1092 - x_10_9 <= 0
_C127: f1012 - x_10_1 <= 0
_C128: f1062 - x_10_6 <= 0
_C129: f1042 - x_10_4 <= 0
_C13: - x_3_4 + x_4_3 = 0
_C130: f121 - x_1_2 <= 0
_C131: f1101 - x_1_10 <= 0
_C132: f141 - x_1_4 <= 0
_C133: f181 - x_1_8 <= 0
_C134: f151 - x_1_5 <= 0
_C135: f211 - x_2_1 <= 0
_C136: f231 - x_2_3 <= 0
_C137: f251 - x_2_5 <= 0
_C138: f321 - x_3_2 <= 0
_C139: f341 - x_3_4 <= 0
_C14: x_4_5 - x_5_4 = 0
_C140: f391 - x_3_9 <= 0
_C141: f371 - x_3_7 <= 0
_C142: f431 - x_4_3 <= 0
_C143: f451 - x_4_5 <= 0
_C144: f411 - x_4_1 <= 0
_C145: f471 - x_4_7 <= 0
_C146: f481 - x_4_8 <= 0
_C147: f4101 - x_4_10 <= 0
_C148: f541 - x_5_4 <= 0
_C149: f561 - x_5_6 <= 0
_C15: - x_1_4 + x_4_1 = 0
_C150: f511 - x_5_1 <= 0
_C151: f521 - x_5_2 <= 0
_C152: f651 - x_6_5 <= 0
_C153: f671 - x_6_7 <= 0
_C154: f6101 - x_6_10 <= 0
_C155: f761 - x_7_6 <= 0
_C156: f781 - x_7_8 <= 0
_C157: f731 - x_7_3 <= 0
_C158: f741 - x_7_4 <= 0
_C159: f871 - x_8_7 <= 0
_C16: x_4_7 - x_7_4 = 0
_C160: f891 - x_8_9 <= 0
_C161: f811 - x_8_1 <= 0
_C162: f841 - x_8_4 <= 0
_C163: f981 - x_9_8 <= 0
_C164: f9101 - x_9_10 <= 0
_C165: f931 - x_9_3 <= 0
_C166: f1091 - x_10_9 <= 0
_C167: f1011 - x_10_1 <= 0
_C168: f1061 - x_10_6 <= 0
_C169: f1041 - x_10_4 <= 0
_C17: x_4_8 - x_8_4 = 0
_C170: f124 - x_1_2 <= 0
_C171: f1104 - x_1_10 <= 0
_C172: f144 - x_1_4 <= 0
_C173: f184 - x_1_8 <= 0
_C174: f154 - x_1_5 <= 0
_C175: f214 - x_2_1 <= 0
_C176: f234 - x_2_3 <= 0
_C177: f254 - x_2_5 <= 0
_C178: f324 - x_3_2 <= 0
_C179: f344 - x_3_4 <= 0
_C18: - x_10_4 + x_4_10 = 0
_C180: f394 - x_3_9 <= 0
_C181: f374 - x_3_7 <= 0
_C182: f434 - x_4_3 <= 0
_C183: f454 - x_4_5 <= 0
_C184: f414 - x_4_1 <= 0
_C185: f474 - x_4_7 <= 0
_C186: f484 - x_4_8 <= 0
_C187: f4104 - x_4_10 <= 0
_C188: f544 - x_5_4 <= 0
_C189: f564 - x_5_6 <= 0
_C19: - x_4_5 + x_5_4 = 0
_C190: f514 - x_5_1 <= 0
_C191: f524 - x_5_2 <= 0
_C192: f654 - x_6_5 <= 0
_C193: f674 - x_6_7 <= 0
_C194: f6104 - x_6_10 <= 0
_C195: f764 - x_7_6 <= 0
_C196: f784 - x_7_8 <= 0
_C197: f734 - x_7_3 <= 0
_C198: f744 - x_7_4 <= 0
_C199: f874 - x_8_7 <= 0
_C2: - x_10_1 + x_1_10 = 0
_C20: x_5_6 - x_6_5 = 0
_C200: f894 - x_8_9 <= 0
_C201: f814 - x_8_1 <= 0
_C202: f844 - x_8_4 <= 0
_C203: f984 - x_9_8 <= 0
_C204: f9104 - x_9_10 <= 0
_C205: f934 - x_9_3 <= 0
_C206: f1094 - x_10_9 <= 0
_C207: f1014 - x_10_1 <= 0
_C208: f1064 - x_10_6 <= 0
_C209: f1044 - x_10_4 <= 0
_C21: - x_1_5 + x_5_1 = 0
_C210: f127 - x_1_2 <= 0
_C211: f1107 - x_1_10 <= 0
_C212: f147 - x_1_4 <= 0
_C213: f187 - x_1_8 <= 0
_C214: f157 - x_1_5 <= 0
_C215: f217 - x_2_1 <= 0
_C216: f237 - x_2_3 <= 0
_C217: f257 - x_2_5 <= 0
_C218: f327 - x_3_2 <= 0
_C219: f347 - x_3_4 <= 0
_C22: - x_2_5 + x_5_2 = 0
_C220: f397 - x_3_9 <= 0
_C221: f377 - x_3_7 <= 0
_C222: f437 - x_4_3 <= 0
_C223: f457 - x_4_5 <= 0
_C224: f417 - x_4_1 <= 0
_C225: f477 - x_4_7 <= 0
_C226: f487 - x_4_8 <= 0
_C227: f4107 - x_4_10 <= 0
_C228: f547 - x_5_4 <= 0
_C229: f567 - x_5_6 <= 0
_C23: - x_5_6 + x_6_5 = 0
_C230: f517 - x_5_1 <= 0
_C231: f527 - x_5_2 <= 0
_C232: f657 - x_6_5 <= 0
_C233: f677 - x_6_7 <= 0
_C234: f6107 - x_6_10 <= 0
_C235: f767 - x_7_6 <= 0
_C236: f787 - x_7_8 <= 0
_C237: f737 - x_7_3 <= 0
_C238: f747 - x_7_4 <= 0
_C239: f877 - x_8_7 <= 0
_C24: x_6_7 - x_7_6 = 0
_C240: f897 - x_8_9 <= 0
_C241: f817 - x_8_1 <= 0
_C242: f847 - x_8_4 <= 0
_C243: f987 - x_9_8 <= 0
_C244: f9107 - x_9_10 <= 0
_C245: f937 - x_9_3 <= 0
_C246: f1097 - x_10_9 <= 0
_C247: f1017 - x_10_1 <= 0
_C248: f1067 - x_10_6 <= 0
_C249: f1047 - x_10_4 <= 0
_C25: - x_10_6 + x_6_10 = 0
_C250: - v_1 + x_1_2 <= 0
_C251: - v_2 + x_2_1 <= 0
_C252: - v_1 + x_1_10 <= 0
_C253: - v_10 + x_10_1 <= 0
_C254: - v_1 + x_1_4 <= 0
_C255: - v_4 + x_4_1 <= 0
_C256: - v_1 + x_1_8 <= 0
_C257: - v_8 + x_8_1 <= 0
_C258: - v_1 + x_1_5 <= 0
_C259: - v_5 + x_5_1 <= 0
_C26: - x_6_7 + x_7_6 = 0
_C260: - v_2 + x_2_1 <= 0
_C261: - v_1 + x_1_2 <= 0
_C262: - v_2 + x_2_3 <= 0
_C263: - v_3 + x_3_2 <= 0
_C264: - v_2 + x_2_5 <= 0
_C265: - v_5 + x_5_2 <= 0
_C266: - v_3 + x_3_2 <= 0
_C267: - v_2 + x_2_3 <= 0
_C268: - v_3 + x_3_4 <= 0
_C269: - v_4 + x_4_3 <= 0
_C27: x_7_8 - x_8_7 = 0
_C270: - v_3 + x_3_9 <= 0
_C271: - v_9 + x_9_3 <= 0
_C272: - v_3 + x_3_7 <= 0
_C273: - v_7 + x_7_3 <= 0
_C274: - v_4 + x_4_3 <= 0
_C275: - v_3 + x_3_4 <= 0
_C276: - v_4 + x_4_5 <= 0
_C277: - v_5 + x_5_4 <= 0
_C278: - v_4 + x_4_1 <= 0
_C279: - v_1 + x_1_4 <= 0
_C28: - x_3_7 + x_7_3 = 0
_C280: - v_4 + x_4_7 <= 0
_C281: - v_7 + x_7_4 <= 0
_C282: - v_4 + x_4_8 <= 0
_C283: - v_8 + x_8_4 <= 0
_C284: - v_4 + x_4_10 <= 0
_C285: - v_10 + x_10_4 <= 0
_C286: - v_5 + x_5_4 <= 0
_C287: - v_4 + x_4_5 <= 0
_C288: - v_5 + x_5_6 <= 0
_C289: - v_6 + x_6_5 <= 0
_C29: - x_4_7 + x_7_4 = 0
_C290: - v_5 + x_5_1 <= 0
_C291: - v_1 + x_1_5 <= 0
_C292: - v_5 + x_5_2 <= 0
_C293: - v_2 + x_2_5 <= 0
_C294: - v_6 + x_6_5 <= 0
_C295: - v_5 + x_5_6 <= 0
_C296: - v_6 + x_6_7 <= 0
_C297: - v_7 + x_7_6 <= 0
_C298: - v_6 + x_6_10 <= 0
_C299: - v_10 + x_10_6 <= 0
_C3: x_1_4 - x_4_1 = 0
_C30: - x_7_8 + x_8_7 = 0
_C300: - v_7 + x_7_6 <= 0
_C301: - v_6 + x_6_7 <= 0
_C302: - v_7 + x_7_8 <= 0
_C303: - v_8 + x_8_7 <= 0
_C304: - v_7 + x_7_3 <= 0
_C305: - v_3 + x_3_7 <= 0
_C306: - v_7 + x_7_4 <= 0
_C307: - v_4 + x_4_7 <= 0
_C308: - v_8 + x_8_7 <= 0
_C309: - v_7 + x_7_8 <= 0
_C31: x_8_9 - x_9_8 = 0
_C310: - v_8 + x_8_9 <= 0
_C311: - v_9 + x_9_8 <= 0
_C312: - v_8 + x_8_1 <= 0
_C313: - v_1 + x_1_8 <= 0
_C314: - v_8 + x_8_4 <= 0
_C315: - v_4 + x_4_8 <= 0
_C316: - v_9 + x_9_8 <= 0
_C317: - v_8 + x_8_9 <= 0
_C318: - v_9 + x_9_10 <= 0
_C319: - v_10 + x_10_9 <= 0
_C32: - x_1_8 + x_8_1 = 0
_C320: - v_9 + x_9_3 <= 0
_C321: - v_3 + x_3_9 <= 0
_C322: - v_10 + x_10_9 <= 0
_C323: - v_9 + x_9_10 <= 0
_C324: - v_10 + x_10_1 <= 0
_C325: - v_1 + x_1_10 <= 0
_C326: - v_10 + x_10_6 <= 0
_C327: - v_6 + x_6_10 <= 0
_C328: - v_10 + x_10_4 <= 0
_C329: - v_4 + x_4_10 <= 0
_C33: - x_4_8 + x_8_4 = 0
_C34: - x_8_9 + x_9_8 = 0
_C35: - x_10_9 + x_9_10 = 0
_C36: - x_3_9 + x_9_3 = 0
_C37: x_10_9 - x_9_10 = 0
_C38: x_10_1 - x_1_10 = 0
_C39: x_10_6 - x_6_10 = 0
_C4: x_1_8 - x_8_1 = 0
_C40: x_10_4 - x_4_10 = 0
_C41: - f1012 + f1102 + f122 + f142 + f152 + f182 - f212 - f412 - f512 - f812
 = 0
_C42: - f1042 - f142 - f342 + f4102 + f412 + f432 + f452 + f472 + f482 - f542
 - f742 - f842 = 0
_C43: - f152 - f252 - f452 + f512 + f522 + f542 + f562 - f652 = 0
_C44: - f1062 - f562 + f6102 + f652 + f672 - f762 = 0
_C45: - f372 - f472 - f672 + f732 + f742 + f762 + f782 - f872 = 0
_C46: - f182 - f482 - f782 + f812 + f842 + f872 + f892 - f982 = 0
_C47: - f1092 - f392 - f892 + f9102 + f932 + f982 = 0
_C48: f1012 + f1042 + f1062 + f1092 - f1102 - f4102 - f6102 - f9102 = 0
_C49: - f121 + f211 + f231 + f251 - f321 - f521 = 0
_C5: x_1_5 - x_5_1 = 0
_C50: - f1041 - f141 - f341 + f4101 + f411 + f431 + f451 + f471 + f481 - f541
 - f741 - f841 = 0
_C51: - f151 - f251 - f451 + f511 + f521 + f541 + f561 - f651 = 0
_C52: - f1061 - f561 + f6101 + f651 + f671 - f761 = 0
_C53: - f371 - f471 - f671 + f731 + f741 + f761 + f781 - f871 = 0
_C54: - f181 - f481 - f781 + f811 + f841 + f871 + f891 - f981 = 0
_C55: - f1091 - f391 - f891 + f9101 + f931 + f981 = 0
_C56: f1011 + f1041 + f1061 + f1091 - f1101 - f4101 - f6101 - f9101 = 0
_C57: - f1014 + f1104 + f124 + f144 + f154 + f184 - f214 - f414 - f514 - f814
 = 0
_C58: - f124 + f214 + f234 + f254 - f324 - f524 = 0
_C59: - f154 - f254 - f454 + f514 + f524 + f544 + f564 - f654 = 0
_C6: - x_1_2 + x_2_1 = 0
_C60: - f1064 - f564 + f6104 + f654 + f674 - f764 = 0
_C61: - f374 - f474 - f674 + f734 + f744 + f764 + f784 - f874 = 0
_C62: - f184 - f484 - f784 + f814 + f844 + f874 + f894 - f984 = 0
_C63: - f1094 - f394 - f894 + f9104 + f934 + f984 = 0
_C64: f1014 + f1044 + f1064 + f1094 - f1104 - f4104 - f6104 - f9104 = 0
_C65: - f1017 + f1107 + f127 + f147 + f157 + f187 - f217 - f417 - f517 - f817
 = 0
_C66: - f127 + f217 + f237 + f257 - f327 - f527 = 0
_C67: - f1047 - f147 - f347 + f4107 + f417 + f437 + f457 + f477 + f487 - f547
 - f747 - f847 = 0
_C68: - f157 - f257 - f457 + f517 + f527 + f547 + f567 - f657 = 0
_C69: - f1067 - f567 + f6107 + f657 + f677 - f767 = 0
_C7: x_2_3 - x_3_2 = 0
_C70: - f187 - f487 - f787 + f817 + f847 + f877 + f897 - f987 = 0
_C71: - f1097 - f397 - f897 + f9107 + f937 + f987 = 0
_C72: f1017 + f1047 + f1067 + f1097 - f1107 - f4107 - f6107 - f9107 = 0
_C73: f322 + f342 + f372 + f392 = 1
_C74: f232 + f432 + f732 + f932 = 0
_C75: f321 + f341 + f371 + f391 = 1
_C76: f231 + f431 + f731 + f931 = 0
_C77: f324 + f344 + f374 + f394 = 1
_C78: f234 + f434 + f734 + f934 = 0
_C79: f327 + f347 + f377 + f397 = 1
_C8: x_2_5 - x_5_2 = 0
_C80: f237 + f437 + f737 + f937 = 0
_C81: f122 + f322 + f522 = 1
_C82: f212 + f232 + f252 = 0
_C83: f1011 + f211 + f411 + f511 + f811 = 1
_C84: f1101 + f121 + f141 + f151 + f181 = 0
_C85: f1044 + f144 + f344 + f544 + f744 + f844 = 1
_C86: f4104 + f414 + f434 + f454 + f474 + f484 = 0
_C87: f377 + f477 + f677 + f877 = 1
_C88: f737 + f747 + f767 + f787 = 0
_C89: - 2 v_1 - 2 v_10 - 2 v_2 - 2 v_3 - 2 v_4 - 2 v_5 - 2 v_6 - 2 v_7 - 2 v_8
 - 2 v_9 + x_10_1 + x_10_4 + x_10_6 + x_10_9 + x_1_10 + x_1_2 + x_1_4 + x_1_5
 + x_1_8 + x_2_1 + x_2_3 + x_2_5 + x_3_2 + x_3_4 + x_3_7 + x_3_9 + x_4_1
 + x_4_10 + x_4_3 + x_4_5 + x_4_7 + x_4_8 + x_5_1 + x_5_2 + x_5_4 + x_5_6
 + x_6_10 + x_6_5 + x_6_7 + x_7_3 + x_7_4 + x_7_6 + x_7_8 + x_8_1 + x_8_4
 + x_8_7 + x_8_9 + x_9_10 + x_9_3 + x_9_8 = -2
_C9: - x_2_3 + x_3_2 = 0
_C90: f122 - x_1_2 <= 0
_C91: f1102 - x_1_10 <= 0
_C92: f142 - x_1_4 <= 0
_C93: f182 - x_1_8 <= 0
_C94: f152 - x_1_5 <= 0
_C95: f212 - x_2_1 <= 0
_C96: f232 - x_2_3 <= 0
_C97: f252 - x_2_5 <= 0
_C98: f322 - x_3_2 <= 0
_C99: f342 - x_3_4 <= 0
Binaries
f1011
f1012
f1014
f1017
f1041
f1042
f1044
f1047
f1061
f1062
f1064
f1067
f1091
f1092
f1094
f1097
f1101
f1102
f1104
f1107
f121
f122
f124
f127
f141
f142
f144
f147
f151
f152
f154
f157
f181
f182
f184
f187
f211
f212
f214
f217
f231
f232
f234
f237
f251
f252
f254
f257
f321
f322
f324
f327
f341
f342
f344
f347
f371
f372
f374
f377
f391
f392
f394
f397
f4101
f4102
f4104
f4107
f411
f412
f414
f417
f431
f432
f434
f437
f451
f452
f454
f457
f471
f472
f474
f477
f481
f482
f484
f487
f511
f512
f514
f517
f521
f522
f524
f527
f541
f542
f544
f547
f561
f562
f564
f567
f6101
f6102
f6104
f6107
f651
f652
f654
f657
f671
f672
f674
f677
f731
f732
f734
f737
f741
f742
f744
f747
f761
f762
f764
f767
f781
f782
f784
f787
f811
f812
f814
f817
f841
f842
f844
f847
f871
f872
f874
f877
f891
f892
f894
f897
f9101
f9102
f9104
f9107
f931
f932
f934
f937
f981
f982
f984
f987
v_1
v_10
v_2
v_3
v_4
v_5
v_6
v_7
v_8
v_9
x_10_1
x_10_4
x_10_6
x_10_9
x_1_10
x_1_2
x_1_4
x_1_5
x_1_8
x_2_1
x_2_3
x_2_5
x_3_2
x_3_4
x_3_7
x_3_9
x_4_1
x_4_10
x_4_3
x_4_5
x_4_7
x_4_8
x_5_1
x_5_2
x_5_4
x_5_6
x_6_10
x_6_5
x_6_7
x_7_3
x_7_4
x_7_6
x_7_8
x_8_1
x_8_4
x_8_7
x_8_9
x_9_10
x_9_3
x_9_8
End
